words_hard_train/5467.qaiger
aag 87 16 0 1 71
2
4
8
16
24
32
40
48
56
82
92
104
116
120
128
136
174
6 2 5
10 8 5
12 9 4
14 11 13
18 16 5
20 17 4
22 19 21
26 24 5
28 25 4
30 27 29
34 32 5
36 33 4
38 35 37
42 40 5
44 41 4
46 43 45
50 48 5
52 49 4
54 51 53
58 56 5
60 57 4
62 59 61
64 54 62
66 46 64
68 38 66
70 30 68
72 22 70
74 14 72
76 74 3
78 15 73
80 79 75
84 80 82
86 77 85
88 23 71
90 89 73
94 91 93
96 81 83
98 95 97
100 31 69
102 101 71
106 102 104
108 90 92
110 107 109
112 39 67
114 113 69
118 115 117
122 63 121
124 123 65
126 62 120
130 127 129
132 130 55
134 124 133
138 135 137
140 134 136
142 47 65
144 143 67
146 141 145
148 139 147
150 114 116
152 149 151
154 119 153
156 103 105
158 154 157
160 110 159
162 98 161
164 86 163
166 75 2
168 165 167
170 7 168
172 6 169
174 171 173
i0 2 y1[7]
i1 1 x2[7]
i2 2 y1[6]
i3 2 y1[5]
i4 2 y1[4]
i5 2 y1[3]
i6 2 y1[2]
i7 2 y1[0]
i8 2 y1[1]
i9 1 x2[6]
i10 1 x2[5]
i11 1 x2[4]
i12 1 x2[3]
i13 1 x2[1]
i14 1 x2[0]
i15 1 x2[2]
o0 bv[0]
c
simplified
  <
    or
      1 x2
      1 x2
    xor
      >> 7
        1 x2
      2 y1
