words_hard_train/5467.qaiger.qdimacs
p cnf 87 214
a 64 2 68 41 46 52 58 60 0
e 1 3 4 5 6 7 8 9 10 11 12 13 14 15 16 17 18 19 20 21 22 23 24 25 26 27 28 29 30 31 32 33 34 35 36 37 38 39 40 42 43 44 45 47 48 49 50 51 53 54 55 56 57 59 61 62 63 65 66 67 69 70 71 72 73 74 75 76 77 78 79 80 81 82 83 84 85 86 87 0
-1 2 3 0
1 -3 0
-2 -3 0
-4 2 5 0
4 -5 0
-2 -5 0
4 -2 6 0
-4 -6 0
2 -6 0
5 6 7 0
-5 -7 0
-6 -7 0
-8 2 9 0
8 -9 0
-2 -9 0
8 -2 10 0
-8 -10 0
2 -10 0
9 10 11 0
-9 -11 0
-10 -11 0
-12 2 13 0
12 -13 0
-2 -13 0
12 -2 14 0
-12 -14 0
2 -14 0
13 14 15 0
-13 -15 0
-14 -15 0
-16 2 17 0
16 -17 0
-2 -17 0
16 -2 18 0
-16 -18 0
2 -18 0
17 18 19 0
-17 -19 0
-18 -19 0
-20 2 21 0
20 -21 0
-2 -21 0
20 -2 22 0
-20 -22 0
2 -22 0
21 22 23 0
-21 -23 0
-22 -23 0
-24 2 25 0
24 -25 0
-2 -25 0
24 -2 26 0
-24 -26 0
2 -26 0
25 26 27 0
-25 -27 0
-26 -27 0
-28 2 29 0
28 -29 0
-2 -29 0
28 -2 30 0
-28 -30 0
2 -30 0
29 30 31 0
-29 -31 0
-30 -31 0
-27 -31 32 0
27 -32 0
31 -32 0
-23 -32 33 0
23 -33 0
32 -33 0
-19 -33 34 0
19 -34 0
33 -34 0
-15 -34 35 0
15 -35 0
34 -35 0
-11 -35 36 0
11 -36 0
35 -36 0
-7 -36 37 0
7 -37 0
36 -37 0
-37 1 38 0
37 -38 0
-1 -38 0
7 36 39 0
-7 -39 0
-36 -39 0
39 37 40 0
-39 -40 0
-37 -40 0
-40 -41 42 0
40 -42 0
41 -42 0
38 42 43 0
-38 -43 0
-42 -43 0
11 35 44 0
-11 -44 0
-35 -44 0
44 36 45 0
-44 -45 0
-36 -45 0
45 46 47 0
-45 -47 0
-46 -47 0
40 41 48 0
-40 -48 0
-41 -48 0
47 48 49 0
-47 -49 0
-48 -49 0
15 34 50 0
-15 -50 0
-34 -50 0
50 35 51 0
-50 -51 0
-35 -51 0
-51 -52 53 0
51 -53 0
52 -53 0
-45 -46 54 0
45 -54 0
46 -54 0
53 54 55 0
-53 -55 0
-54 -55 0
19 33 56 0
-19 -56 0
-33 -56 0
56 34 57 0
-56 -57 0
-34 -57 0
57 58 59 0
-57 -59 0
-58 -59 0
31 60 61 0
-31 -61 0
-60 -61 0
61 32 62 0
-61 -62 0
-32 -62 0
-31 -60 63 0
31 -63 0
60 -63 0
63 64 65 0
-63 -65 0
-64 -65 0
-65 27 66 0
65 -66 0
-27 -66 0
-62 66 67 0
62 -67 0
-66 -67 0
67 68 69 0
-67 -69 0
-68 -69 0
-67 -68 70 0
67 -70 0
68 -70 0
23 32 71 0
-23 -71 0
-32 -71 0
71 33 72 0
-71 -72 0
-33 -72 0
70 72 73 0
-70 -73 0
-72 -73 0
69 73 74 0
-69 -74 0
-73 -74 0
-57 -58 75 0
57 -75 0
58 -75 0
74 75 76 0
-74 -76 0
-75 -76 0
59 76 77 0
-59 -77 0
-76 -77 0
51 52 78 0
-51 -78 0
-52 -78 0
-77 78 79 0
77 -79 0
-78 -79 0
-55 79 80 0
55 -80 0
-79 -80 0
-49 80 81 0
49 -81 0
-80 -81 0
-43 81 82 0
43 -82 0
-81 -82 0
37 -1 83 0
-37 -83 0
1 -83 0
82 83 84 0
-82 -84 0
-83 -84 0
3 -84 85 0
-3 -85 0
84 -85 0
-3 84 86 0
3 -86 0
-84 -86 0
85 86 87 0
-85 -87 0
-86 -87 0
87 0
